c Generated map
c Size: 10 * 10, weights in range: 1 to 10, walls: True, with ratio 0.1
c dim 4 of 6
c
p sp 100 144
c graph contains 100 nodes and 144 arcs
c
a 1 2 6
a 2 1 6
a 2 12 5
a 12 2 5
a 2 3 6
a 3 2 6
a 3 13 4
a 13 3 4
a 3 4 2
a 4 3 2
a 4 14 8
a 14 4 8
a 4 5 3
a 5 4 3
a 5 6 6
a 6 5 6
a 6 16 2
a 16 6 2
a 6 7 10
a 7 6 10
a 7 17 3
a 17 7 3
a 7 8 8
a 8 7 8
a 8 18 10
a 18 8 10
a 8 9 5
a 9 8 5
a 9 19 1
a 19 9 1
a 9 10 1
a 10 9 1
a 10 20 8
a 20 10 8
a 12 22 7
a 22 12 7
a 12 13 8
a 13 12 8
a 13 23 5
a 23 13 5
a 13 14 5
a 14 13 5
a 14 24 6
a 24 14 6
a 16 26 8
a 26 16 8
a 16 17 5
a 17 16 5
a 17 27 6
a 27 17 6
a 17 18 4
a 18 17 4
a 18 28 8
a 28 18 8
a 18 19 4
a 19 18 4
a 19 29 2
a 29 19 2
a 19 20 8
a 20 19 8
a 20 30 2
a 30 20 2
a 21 31 5
a 31 21 5
a 21 22 2
a 22 21 2
a 22 32 3
a 32 22 3
a 22 23 2
a 23 22 2
a 23 33 10
a 33 23 10
a 23 24 8
a 24 23 8
a 24 34 9
a 34 24 9
a 24 25 5
a 25 24 5
a 25 35 7
a 35 25 7
a 25 26 6
a 26 25 6
a 26 36 3
a 36 26 3
a 26 27 5
a 27 26 5
a 27 37 5
a 37 27 5
a 27 28 8
a 28 27 8
a 28 38 10
a 38 28 10
a 28 29 9
a 29 28 9
a 29 39 8
a 39 29 8
a 29 30 7
a 30 29 7
a 30 40 2
a 40 30 2
a 31 41 1
a 41 31 1
a 31 32 6
a 32 31 6
a 32 42 7
a 42 32 7
a 32 33 7
a 33 32 7
a 33 34 9
a 34 33 9
a 34 44 3
a 44 34 3
a 34 35 1
a 35 34 1
a 35 45 10
a 45 35 10
a 35 36 8
a 36 35 8
a 36 37 5
a 37 36 5
a 37 47 5
a 47 37 5
a 37 38 5
a 38 37 5
a 38 48 3
a 48 38 3
a 38 39 2
a 39 38 2
a 39 49 2
a 49 39 2
a 39 40 8
a 40 39 8
a 41 51 2
a 51 41 2
a 41 42 6
a 42 41 6
a 42 52 6
a 52 42 6
a 44 54 10
a 54 44 10
a 44 45 4
a 45 44 4
a 45 55 2
a 55 45 2
a 47 57 8
a 57 47 8
a 47 48 2
a 48 47 2
a 48 58 3
a 58 48 3
a 48 49 8
a 49 48 8
a 49 59 7
a 59 49 7
a 51 61 5
a 61 51 5
a 51 52 10
a 52 51 10
a 52 62 6
a 62 52 6
a 52 53 5
a 53 52 5
a 53 63 4
a 63 53 4
a 53 54 2
a 54 53 2
a 54 64 7
a 64 54 7
a 54 55 8
a 55 54 8
a 55 56 1
a 56 55 1
a 56 66 7
a 66 56 7
a 56 57 8
a 57 56 8
a 57 67 7
a 67 57 7
a 57 58 9
a 58 57 9
a 58 59 8
a 59 58 8
a 59 60 9
a 60 59 9
a 60 70 8
a 70 60 8
a 61 71 8
a 71 61 8
a 61 62 9
a 62 61 9
a 62 72 1
a 72 62 1
a 62 63 9
a 63 62 9
a 63 73 4
a 73 63 4
a 63 64 6
a 64 63 6
a 64 74 4
a 74 64 4
a 66 76 5
a 76 66 5
a 66 67 10
a 67 66 10
a 67 77 1
a 77 67 1
a 70 80 6
a 80 70 6
a 71 81 4
a 81 71 4
a 71 72 5
a 72 71 5
a 72 73 3
a 73 72 3
a 73 83 6
a 83 73 6
a 73 74 1
a 74 73 1
a 74 84 10
a 84 74 10
a 74 75 3
a 75 74 3
a 75 85 5
a 85 75 5
a 75 76 2
a 76 75 2
a 76 86 3
a 86 76 3
a 76 77 8
a 77 76 8
a 77 87 9
a 87 77 9
a 77 78 2
a 78 77 2
a 78 88 1
a 88 78 1
a 78 79 10
a 79 78 10
a 79 89 8
a 89 79 8
a 79 80 5
a 80 79 5
a 81 91 7
a 91 81 7
a 83 93 2
a 93 83 2
a 83 84 9
a 84 83 9
a 84 94 4
a 94 84 4
a 84 85 9
a 85 84 9
a 85 95 3
a 95 85 3
a 85 86 7
a 86 85 7
a 86 96 2
a 96 86 2
a 86 87 5
a 87 86 5
a 87 97 7
a 97 87 7
a 87 88 4
a 88 87 4
a 88 98 2
a 98 88 2
a 88 89 3
a 89 88 3
a 89 99 6
a 99 89 6
a 91 92 9
a 92 91 9
a 92 93 9
a 93 92 9
a 93 94 7
a 94 93 7
a 94 95 10
a 95 94 10
a 95 96 3
a 96 95 3
a 96 97 6
a 97 96 6
a 97 98 1
a 98 97 1
a 98 99 2
a 99 98 2
a 99 100 1
a 100 99 1
